10	5
0	3	1	3	2
1	0
2	1	5
3	2	5	10
4	1	9
5	0
6	1	8
7	1	4
8	1	7
9	1	11
10	1	11
11	0
0	0	0	0	0	0	0
1	7	5	0	0	4	0
2	5	5	0	0	0	2
3	6	4	2	4	2	2
4	2	0	1	5	0	0
5	5	1	4	0	0	0
6	8	0	3	3	0	2
7	6	0	1	0	3	0
8	9	1	3	0	0	1
9	9	0	0	0	5	0
10	3	1	0	5	0	5
11	0	0	0	0	0	0
6	4	5	5	6
